tsp_instances/TSP20/instance90.tsp
NODE_COORD_SECTION
0 23 2
1 2 193
2 91 67
3 50 145
4 29 31
5 97 50
6 18 134
7 109 160
8 114 140
9 26 132
10 124 73
11 112 59
12 9 148
13 186 26
14 63 146
15 31 2
16 162 108
17 139 67
18 84 92
19 51 170
