tsp_instances/TSP20/instance90.opt.tour
TOUR_SECTION
1
5
10
7
13
2
20
4
15
8
9
17
14
18
11
12
6
3
19
16
-1